tsp_instances/TSP50/instance12.tsp
NODE_COORD_SECTION
0 53 154
1 87 84
2 112 85
3 66 184
4 135 100
5 168 40
6 143 48
7 84 134
8 68 79
9 157 6
10 69 7
11 130 156
12 107 111
13 193 91
14 25 33
15 95 87
16 168 162
17 43 109
18 108 200
19 198 99
20 54 183
21 136 164
22 189 71
23 160 52
24 56 93
25 25 55
26 138 104
27 192 70
28 19 101
29 171 178
30 120 144
31 39 163
32 125 34
33 51 111
34 122 93
35 91 128
36 132 125
37 97 11
38 33 9
39 42 33
40 108 198
41 188 34
42 186 199
43 100 97
44 134 146
45 51 182
46 183 194
47 122 147
48 49 41
49 66 179
