tsp_instances/TSP50/instance12.opt.tour
TOUR_SECTION
1
8
36
13
35
3
44
16
2
9
25
34
18
29
26
49
40
15
39
11
38
33
7
24
6
10
42
28
23
14
20
27
5
37
31
48
45
12
22
17
30
47
43
19
41
4
50
21
46
32
-1